* ENCODING=ISO-8859-1
NAME          IloCplex
ROWS
 N  obj1    
 L  c1      
 E  c2      
 E  c3      
 E  c4      
 E  c5      
 E  c6      
 E  c7      
 E  c8      
 E  c9      
 E  c10     
 E  c11     
 E  c12     
 E  c13     
 E  c14     
 E  c15     
 E  c16     
 E  c17     
 E  c18     
 E  c19     
 E  c20     
 E  c21     
 E  c22     
 E  c23     
 E  c24     
 E  c25     
 E  c26     
 E  c27     
 E  c28     
 E  c29     
 E  c30     
 E  c31     
 E  c32     
 E  c33     
 E  c34     
 E  c35     
 E  c36     
 E  c37     
 E  c38     
 E  c39     
 E  c40     
 E  c41     
 L  c42     
 L  c43     
 L  c44     
 L  c45     
 L  c46     
 L  c47     
 L  c48     
 L  c49     
 L  c50     
 L  c51     
 L  c52     
 L  c53     
 L  c54     
 L  c55     
 L  c56     
 L  c57     
 L  c58     
 L  c59     
 L  c60     
 L  c61     
 L  c62     
 L  c63     
 L  c64     
 L  c65     
 L  c66     
 L  c67     
 L  c68     
 L  c69     
 L  c70     
 L  c71     
 L  c72     
 L  c73     
 L  c74     
 L  c75     
 L  c76     
 L  c77     
 L  c78     
 L  c79     
 L  c80     
 L  c81     
 L  c82     
 L  c83     
 L  c84     
 L  c85     
 L  c86     
 L  c87     
 L  c88     
 L  c89     
 L  c90     
 L  c91     
 L  c92     
 L  c93     
 L  c94     
 L  c95     
 L  c96     
 L  c97     
 L  c98     
 L  c99     
 L  c100    
 L  c101    
 L  c102    
 L  c103    
 L  c104    
 L  c105    
 L  c106    
 L  c107    
 L  c108    
 L  c109    
 L  c110    
 L  c111    
 L  c112    
 L  c113    
 L  c114    
 L  c115    
 L  c116    
 L  c117    
 L  c118    
 L  c119    
 L  c120    
 L  c121    
 L  c122    
 L  c123    
 L  c124    
 L  c125    
 L  c126    
 L  c127    
 L  c128    
 L  c129    
 L  c130    
 L  c131    
 L  c132    
 L  c133    
 L  c134    
 L  c135    
 L  c136    
 L  c137    
 L  c138    
 L  c139    
 L  c140    
 L  c141    
 L  c142    
 L  c143    
 L  c144    
COLUMNS
    y_a_86    c1                              1
    y_a_86    c28                            -1
    y_a_86    c40                             1
    y_a_86    c128                            1
    y_a_87    c1                              1
    y_a_87    c4                             -1
    y_a_87    c40                             1
    y_a_87    c129                            1
    y_a_88    c1                              1
    y_a_88    c38                            -1
    y_a_88    c40                             1
    y_a_88    c130                            1
    y_a_89    c1                              1
    y_a_89    c23                            -1
    y_a_89    c40                             1
    y_a_89    c131                            1
    y_a_90    c1                              1
    y_a_90    c8                             -1
    y_a_90    c40                             1
    y_a_90    c132                            1
    y_a_91    c1                              1
    y_a_91    c8                             -1
    y_a_91    c40                             1
    y_a_91    c133                            1
    y_a_92    c1                              1
    y_a_92    c11                            -1
    y_a_92    c40                             1
    y_a_92    c134                            1
    y_a_93    c1                              1
    y_a_93    c15                            -1
    y_a_93    c40                             1
    y_a_93    c135                            1
    y_a_0     c2                              1
    y_a_0     c3                             -1
    y_a_0     c42                             1
    y_a_1     c2                              1
    y_a_1     c7                             -1
    y_a_1     c43                             1
    y_a_2     c2                              1
    y_a_2     c8                             -1
    y_a_2     c44                             1
    y_a_3     c2                              1
    y_a_3     c22                            -1
    y_a_3     c45                             1
    y_a_4     c2                              1
    y_a_4     c27                            -1
    y_a_4     c46                             1
    y_a_5     c3                              1
    y_a_5     c4                             -1
    y_a_5     c47                             1
    y_a_6     c3                              1
    y_a_6     c5                             -1
    y_a_6     c48                             1
    y_a_7     c3                              1
    y_a_7     c6                             -1
    y_a_7     c49                             1
    y_a_8     c3                              1
    y_a_8     c7                             -1
    y_a_8     c50                             1
    y_a_9     c3                              1
    y_a_9     c13                            -1
    y_a_9     c51                             1
    y_a_10    c3                              1
    y_a_10    c14                            -1
    y_a_10    c52                             1
    y_a_11    c3                              1
    y_a_11    c18                            -1
    y_a_11    c53                             1
    y_a_12    c3                              1
    y_a_12    c23                            -1
    y_a_12    c54                             1
    y_a_13    c3                              1
    y_a_13    c28                            -1
    y_a_13    c55                             1
    y_a_14    c4                              1
    y_a_14    c8                             -1
    y_a_14    c56                             1
    y_a_15    c4                              1
    y_a_15    c17                            -1
    y_a_15    c57                             1
    y_a_16    c4                              1
    y_a_16    c19                            -1
    y_a_16    c58                             1
    y_a_17    c4                              1
    y_a_17    c25                            -1
    y_a_17    c59                             1
    y_a_18    c4                              1
    y_a_18    c38                            -1
    y_a_18    c60                             1
    y_a_19    c5                              1
    y_a_19    c11                            -1
    y_a_19    c61                             1
    y_a_20    c5                              1
    y_a_20    c13                            -1
    y_a_20    c62                             1
    y_a_21    c5                              1
    y_a_21    c16                            -1
    y_a_21    c63                             1
    y_a_22    c6                              1
    y_a_22    c12                            -1
    y_a_22    c64                             1
    y_a_23    c6                              1
    y_a_23    c38                            -1
    y_a_23    c65                             1
    y_a_24    c6                              1
    y_a_24    c39                            -1
    y_a_24    c66                             1
    y_a_25    c7                              1
    y_a_25    c9                             -1
    y_a_25    c67                             1
    y_a_26    c7                              1
    y_a_26    c10                            -1
    y_a_26    c68                             1
    y_a_27    c7                              1
    y_a_27    c16                            -1
    y_a_27    c69                             1
    y_a_28    c7                              1
    y_a_28    c23                            -1
    y_a_28    c70                             1
    y_a_29    c7                              1
    y_a_29    c24                            -1
    y_a_29    c71                             1
    y_a_30    c7                              1
    y_a_30    c33                            -1
    y_a_30    c72                             1
    y_a_31    c7                              1
    y_a_31    c34                            -1
    y_a_31    c73                             1
    y_a_32    c8                              1
    y_a_32    c9                             -1
    y_a_32    c74                             1
    y_a_33    c8                              1
    y_a_33    c31                            -1
    y_a_33    c75                             1
    y_a_34    c9                              1
    y_a_34    c15                            -1
    y_a_34    c76                             1
    y_a_35    c9                              1
    y_a_35    c16                            -1
    y_a_35    c77                             1
    y_a_36    c9                              1
    y_a_36    c20                            -1
    y_a_36    c78                             1
    y_a_37    c9                              1
    y_a_37    c27                            -1
    y_a_37    c79                             1
    y_a_38    c9                              1
    y_a_38    c29                            -1
    y_a_38    c80                             1
    y_a_39    c9                              1
    y_a_39    c36                            -1
    y_a_39    c81                             1
    y_a_40    c10                             1
    y_a_40    c30                            -1
    y_a_40    c82                             1
    y_a_41    c10                             1
    y_a_41    c31                            -1
    y_a_41    c83                             1
    y_a_42    c10                             1
    y_a_42    c32                            -1
    y_a_42    c84                             1
    y_a_43    c10                             1
    y_a_43    c34                            -1
    y_a_43    c85                             1
    y_a_44    c11                             1
    y_a_44    c17                            -1
    y_a_44    c86                             1
    y_a_45    c12                             1
    y_a_45    c17                            -1
    y_a_45    c87                             1
    y_a_46    c12                             1
    y_a_46    c20                            -1
    y_a_46    c88                             1
    y_a_47    c12                             1
    y_a_47    c30                            -1
    y_a_47    c89                             1
    y_a_48    c12                             1
    y_a_48    c33                            -1
    y_a_48    c90                             1
    y_a_96    c12                             1
    y_a_96    c41                            -1
    y_a_96    c138                            1
    y_a_49    c13                             1
    y_a_49    c14                            -1
    y_a_49    c91                             1
    y_a_50    c13                             1
    y_a_50    c31                            -1
    y_a_50    c92                             1
    y_a_51    c13                             1
    y_a_51    c38                            -1
    y_a_51    c93                             1
    y_a_52    c13                             1
    y_a_52    c39                            -1
    y_a_52    c94                             1
    y_a_53    c14                             1
    y_a_53    c24                            -1
    y_a_53    c95                             1
    y_a_54    c14                             1
    y_a_54    c35                            -1
    y_a_54    c96                             1
    y_a_55    c15                             1
    y_a_55    c22                            -1
    y_a_55    c97                             1
    y_a_56    c15                             1
    y_a_56    c31                            -1
    y_a_56    c98                             1
    y_a_57    c15                             1
    y_a_57    c34                            -1
    y_a_57    c99                             1
    y_a_58    c16                             1
    y_a_58    c21                            -1
    y_a_58    c100                            1
    y_a_59    c16                             1
    y_a_59    c25                            -1
    y_a_59    c101                            1
    y_a_60    c17                             1
    y_a_60    c18                            -1
    y_a_60    c102                            1
    y_a_61    c17                             1
    y_a_61    c19                            -1
    y_a_61    c103                            1
    y_a_62    c17                             1
    y_a_62    c30                            -1
    y_a_62    c104                            1
    y_a_63    c17                             1
    y_a_63    c37                            -1
    y_a_63    c105                            1
    y_a_64    c18                             1
    y_a_64    c24                            -1
    y_a_64    c106                            1
    y_a_65    c18                             1
    y_a_65    c27                            -1
    y_a_65    c107                            1
    y_a_66    c18                             1
    y_a_66    c29                            -1
    y_a_66    c108                            1
    y_a_67    c18                             1
    y_a_67    c37                            -1
    y_a_67    c109                            1
    y_a_68    c19                             1
    y_a_68    c29                            -1
    y_a_68    c110                            1
    y_a_69    c19                             1
    y_a_69    c33                            -1
    y_a_69    c111                            1
    y_a_100   c19                             1
    y_a_100   c41                            -1
    y_a_100   c142                            1
    y_a_70    c20                             1
    y_a_70    c25                            -1
    y_a_70    c112                            1
    y_a_71    c20                             1
    y_a_71    c26                            -1
    y_a_71    c113                            1
    y_a_72    c20                             1
    y_a_72    c35                            -1
    y_a_72    c114                            1
    y_a_95    c20                             1
    y_a_95    c41                            -1
    y_a_95    c137                            1
    y_a_98    c22                             1
    y_a_98    c41                            -1
    y_a_98    c140                            1
    y_a_99    c22                             1
    y_a_99    c41                            -1
    y_a_99    c141                            1
    y_a_101   c22                             1
    y_a_101   c41                            -1
    y_a_101   c143                            1
    y_a_73    c23                             1
    y_a_73    c24                            -1
    y_a_73    c115                            1
    y_a_74    c23                             1
    y_a_74    c28                            -1
    y_a_74    c116                            1
    y_a_75    c24                             1
    y_a_75    c33                            -1
    y_a_75    c117                            1
    y_a_76    c24                             1
    y_a_76    c36                            -1
    y_a_76    c118                            1
    y_a_77    c25                             1
    y_a_77    c32                            -1
    y_a_77    c119                            1
    y_a_78    c27                             1
    y_a_78    c39                            -1
    y_a_78    c120                            1
    y_a_79    c28                             1
    y_a_79    c31                            -1
    y_a_79    c121                            1
    y_a_97    c29                             1
    y_a_97    c41                            -1
    y_a_97    c139                            1
    y_a_80    c30                             1
    y_a_80    c31                            -1
    y_a_80    c122                            1
    y_a_81    c30                             1
    y_a_81    c35                            -1
    y_a_81    c123                            1
    y_a_82    c30                             1
    y_a_82    c39                            -1
    y_a_82    c124                            1
    y_a_83    c32                             1
    y_a_83    c39                            -1
    y_a_83    c125                            1
    y_a_84    c33                             1
    y_a_84    c37                            -1
    y_a_84    c126                            1
    y_a_94    c37                             1
    y_a_94    c41                            -1
    y_a_94    c136                            1
    y_a_85    c38                             1
    y_a_85    c39                            -1
    y_a_85    c127                            1
    y_a_102   c40                            -1
    y_a_102   c41                             1
    y_a_102   c144                            1
    MARK0000  'MARKER'                 'INTORG'
    x_a_0     c42                            40
    x_a_1     c43                            36
    x_a_2     c44                             7
    x_a_3     c45                             8
    x_a_4     c46                            11
    x_a_5     c47                            19
    x_a_6     c48                            34
    x_a_7     c49                            37
    x_a_8     c50                            18
    x_a_9     c51                            41
    x_a_10    c52                            26
    x_a_11    c53                            32
    x_a_12    c54                            16
    x_a_13    c55                            15
    x_a_14    c56                            26
    x_a_15    c57                            20
    x_a_16    c58                             1
    x_a_17    c59                             1
    x_a_18    c60                             7
    x_a_19    c61                            12
    x_a_20    c62                             6
    x_a_21    c63                            39
    x_a_22    c64                            30
    x_a_23    c65                            16
    x_a_24    c66                            12
    x_a_25    c67                            35
    x_a_26    c68                            32
    x_a_27    c69                             9
    x_a_28    c70                             9
    x_a_29    c71                            39
    x_a_30    c72                            40
    x_a_31    c73                            45
    x_a_32    c74                            25
    x_a_33    c75                            49
    x_a_34    c76                            30
    x_a_35    c77                            31
    x_a_36    c78                            15
    x_a_37    c79                            24
    x_a_38    c80                             6
    x_a_39    c81                            49
    x_a_40    c82                            33
    x_a_41    c83                            29
    x_a_42    c84                            30
    x_a_43    c85                            15
    x_a_44    c86                            12
    x_a_45    c87                             2
    x_a_46    c88                            32
    x_a_47    c89                            37
    x_a_48    c90                            32
    x_a_49    c91                            20
    x_a_50    c92                            34
    x_a_51    c93                            21
    x_a_52    c94                            21
    x_a_53    c95                            39
    x_a_54    c96                            35
    x_a_55    c97                             6
    x_a_56    c98                            19
    x_a_57    c99                            38
    x_a_58    c100                           28
    x_a_59    c101                           43
    x_a_60    c102                           49
    x_a_61    c103                           44
    x_a_62    c104                            5
    x_a_63    c105                           45
    x_a_64    c106                           20
    x_a_65    c107                           15
    x_a_66    c108                           22
    x_a_67    c109                            7
    x_a_68    c110                           15
    x_a_69    c111                           49
    x_a_70    c112                            7
    x_a_71    c113                           21
    x_a_72    c114                            6
    x_a_73    c115                           31
    x_a_74    c116                            2
    x_a_75    c117                           28
    x_a_76    c118                           38
    x_a_77    c119                           46
    x_a_78    c120                           25
    x_a_79    c121                           18
    x_a_80    c122                            1
    x_a_81    c123                           31
    x_a_82    c124                           38
    x_a_83    c125                           14
    x_a_84    c126                           26
    x_a_85    c127                           33
    x_a_86    c128                     50000000
    x_a_87    c129                     50000000
    x_a_88    c130                     50000000
    x_a_89    c131                     50000000
    x_a_90    c132                     50000000
    x_a_91    c133                     50000000
    x_a_92    c134                     50000000
    x_a_93    c135                     50000000
    x_a_94    c136                     50000000
    x_a_95    c137                     50000000
    x_a_96    c138                     50000000
    x_a_97    c139                     50000000
    x_a_98    c140                     50000000
    x_a_99    c141                     50000000
    x_a_100   c142                     50000000
    x_a_101   c143                     50000000
    x_a_102   c144                        10000
    MARK0001  'MARKER'                 'INTEND'
RHS
    rhs       c1                           77.4
    rhs       c42                            40
    rhs       c43                            36
    rhs       c44                             7
    rhs       c45                             8
    rhs       c46                            11
    rhs       c47                            19
    rhs       c48                            34
    rhs       c49                            37
    rhs       c50                            18
    rhs       c51                            41
    rhs       c52                            26
    rhs       c53                            32
    rhs       c54                            16
    rhs       c55                            15
    rhs       c56                            26
    rhs       c57                            20
    rhs       c58                             1
    rhs       c59                             1
    rhs       c60                             7
    rhs       c61                            12
    rhs       c62                             6
    rhs       c63                            39
    rhs       c64                            30
    rhs       c65                            16
    rhs       c66                            12
    rhs       c67                            35
    rhs       c68                            32
    rhs       c69                             9
    rhs       c70                             9
    rhs       c71                            39
    rhs       c72                            40
    rhs       c73                            45
    rhs       c74                            25
    rhs       c75                            49
    rhs       c76                            30
    rhs       c77                            31
    rhs       c78                            15
    rhs       c79                            24
    rhs       c80                             6
    rhs       c81                            49
    rhs       c82                            33
    rhs       c83                            29
    rhs       c84                            30
    rhs       c85                            15
    rhs       c86                            12
    rhs       c87                             2
    rhs       c88                            32
    rhs       c89                            37
    rhs       c90                            32
    rhs       c91                            20
    rhs       c92                            34
    rhs       c93                            21
    rhs       c94                            21
    rhs       c95                            39
    rhs       c96                            35
    rhs       c97                             6
    rhs       c98                            19
    rhs       c99                            38
    rhs       c100                           28
    rhs       c101                           43
    rhs       c102                           49
    rhs       c103                           44
    rhs       c104                            5
    rhs       c105                           45
    rhs       c106                           20
    rhs       c107                           15
    rhs       c108                           22
    rhs       c109                            7
    rhs       c110                           15
    rhs       c111                           49
    rhs       c112                            7
    rhs       c113                           21
    rhs       c114                            6
    rhs       c115                           31
    rhs       c116                            2
    rhs       c117                           28
    rhs       c118                           38
    rhs       c119                           46
    rhs       c120                           25
    rhs       c121                           18
    rhs       c122                            1
    rhs       c123                           31
    rhs       c124                           38
    rhs       c125                           14
    rhs       c126                           26
    rhs       c127                           33
    rhs       c128                     50000000
    rhs       c129                     50000000
    rhs       c130                     50000000
    rhs       c131                     50000000
    rhs       c132                     50000000
    rhs       c133                     50000000
    rhs       c134                     50000000
    rhs       c135                     50000000
    rhs       c136                     50000000
    rhs       c137                     50000000
    rhs       c138                     50000000
    rhs       c139                     50000000
    rhs       c140                     50000000
    rhs       c141                     50000000
    rhs       c142                     50000000
    rhs       c143                     50000000
    rhs       c144                        10000
BOUNDS
 BV bnd       x_a_0   
 BV bnd       x_a_1   
 BV bnd       x_a_2   
 BV bnd       x_a_3   
 BV bnd       x_a_4   
 BV bnd       x_a_5   
 BV bnd       x_a_6   
 BV bnd       x_a_7   
 BV bnd       x_a_8   
 BV bnd       x_a_9   
 BV bnd       x_a_10  
 BV bnd       x_a_11  
 BV bnd       x_a_12  
 BV bnd       x_a_13  
 BV bnd       x_a_14  
 BV bnd       x_a_15  
 BV bnd       x_a_16  
 BV bnd       x_a_17  
 BV bnd       x_a_18  
 BV bnd       x_a_19  
 BV bnd       x_a_20  
 BV bnd       x_a_21  
 BV bnd       x_a_22  
 BV bnd       x_a_23  
 BV bnd       x_a_24  
 BV bnd       x_a_25  
 BV bnd       x_a_26  
 BV bnd       x_a_27  
 BV bnd       x_a_28  
 BV bnd       x_a_29  
 BV bnd       x_a_30  
 BV bnd       x_a_31  
 BV bnd       x_a_32  
 BV bnd       x_a_33  
 BV bnd       x_a_34  
 BV bnd       x_a_35  
 BV bnd       x_a_36  
 BV bnd       x_a_37  
 BV bnd       x_a_38  
 BV bnd       x_a_39  
 BV bnd       x_a_40  
 BV bnd       x_a_41  
 BV bnd       x_a_42  
 BV bnd       x_a_43  
 BV bnd       x_a_44  
 BV bnd       x_a_45  
 BV bnd       x_a_46  
 BV bnd       x_a_47  
 BV bnd       x_a_48  
 BV bnd       x_a_49  
 BV bnd       x_a_50  
 BV bnd       x_a_51  
 BV bnd       x_a_52  
 BV bnd       x_a_53  
 BV bnd       x_a_54  
 BV bnd       x_a_55  
 BV bnd       x_a_56  
 BV bnd       x_a_57  
 BV bnd       x_a_58  
 BV bnd       x_a_59  
 BV bnd       x_a_60  
 BV bnd       x_a_61  
 BV bnd       x_a_62  
 BV bnd       x_a_63  
 BV bnd       x_a_64  
 BV bnd       x_a_65  
 BV bnd       x_a_66  
 BV bnd       x_a_67  
 BV bnd       x_a_68  
 BV bnd       x_a_69  
 BV bnd       x_a_70  
 BV bnd       x_a_71  
 BV bnd       x_a_72  
 BV bnd       x_a_73  
 BV bnd       x_a_74  
 BV bnd       x_a_75  
 BV bnd       x_a_76  
 BV bnd       x_a_77  
 BV bnd       x_a_78  
 BV bnd       x_a_79  
 BV bnd       x_a_80  
 BV bnd       x_a_81  
 BV bnd       x_a_82  
 BV bnd       x_a_83  
 BV bnd       x_a_84  
 BV bnd       x_a_85  
 BV bnd       x_a_86  
 BV bnd       x_a_87  
 BV bnd       x_a_88  
 BV bnd       x_a_89  
 BV bnd       x_a_90  
 BV bnd       x_a_91  
 BV bnd       x_a_92  
 BV bnd       x_a_93  
 BV bnd       x_a_94  
 BV bnd       x_a_95  
 BV bnd       x_a_96  
 BV bnd       x_a_97  
 BV bnd       x_a_98  
 BV bnd       x_a_99  
 BV bnd       x_a_100 
 BV bnd       x_a_101 
 BV bnd       x_a_102 
ENDATA
